\ Model qp
\ LP format - for model browsing. Use MPS format to capture full model detail.
Minimize
  IS0 + IS1 + IS2 + IS3 + IS4 + IS5 + IS6 + IS7 + IS8 + IS9 + IS10 + IS11
   + IS12 + IS13 + IS14 + IS15
Subject To
 Predicate-C-0.2: 1.29471 IS0 + 0.00355 IS3 >= 0
 Predicate-C-1.2: 0.2132 IS1 + 0.01466 IS4 >= 0
 Predicate-C-2.2: 0.54479 IS2 + 0.00755 IS5 >= 0
 Predicate-C-3.2: 1.43868 IS3 - 0.005 IS7 >= 0.0196
 Predicate-C-4.2: 0.26118 IS4 + 0.10795 IS6 >= 0.0588
 Predicate-C-5.2: 1.30635 IS5 + 0.01718 IS12 >= 0
 Predicate-C-6.2: 0.75843 IS6 + 0.01517 IS9 >= 0
 Predicate-C-7.2: 1.04302 IS7 + 0.00095 IS10 >= 0
 Predicate-C-8.2: 1.07603 IS8 + 0.00789 IS11 >= 0
 Predicate-C-9.2: 1.47858 IS9 + 0.01995 IS13 >= 0
 Predicate-C-10.2: 0.69197 IS10 + 0.01014 IS14 >= 0
 Predicate-C-11.2: 0.06125 IS11 + 0.00198 IS15 >= 0
 Predicate-C-12.2: 1.28567 IS12 >= 0
 Predicate-C-13.2: 0.52554 IS13 >= 0
 Predicate-C-14.2: 1.2269 IS14 >= 0
 Predicate-C-15.2: 1.78769 IS15 >= 0
Bounds
 IS0 free
 IS1 free
 IS2 free
 IS3 free
 IS4 free
 IS5 free
 IS6 free
 IS7 free
 IS8 free
 IS9 free
 IS10 free
 IS11 free
 IS12 free
 IS13 free
 IS14 free
 IS15 free
End
